325729
6 51227
155
125355 125354 125353 125352 125351 125350 125349 125348 125347 125346 125345 125344 125343 125342 125341 125340 125339 125338 125337 125336 125335 125334 125333 125332 125331 125330 125329 125328 125327 125326 125325 125324 125323 125322 125321 125320 125319 125318 125317 125316 125315 125314 125313 125312 125311 125310 125309 125308 125307 125306 125305 125304 125303 125302 125301 125300 125299 125298 125297 125296 125295 125294 125293 125292 125291 125290 125289 125288 125287 125286 125285 125284 125283 125282 125281 125280 125279 125278 125277 125276 125275 125274 125273 125272 125271 125270 125269 125268 125267 125266 125265 125264 125263 125262 125261 125260 125259 125258 125257 125256 125255 125254 125253 125252 125251 125250 125249 125248 125247 125246 125245 125244 125243 125242 125241 125240 125239 125238 125237 125236 125235 125234 125233 125232 125231 125230 125229 125228 125227 125226 125225 125224 125223 125222 125221 125220 125219 125218 125217 125216 125215 125214 125213 125212 125211 125210 125209 125208 125207 125176 121846 115112 115111 46976 122035 
760 8181
5126.55
